p edge 25 36
e 0 6
e 0 24
e 1 9
e 1 11
e 1 17
e 2 9
e 2 12
e 2 16
e 2 22
e 3 9
e 3 20
e 3 21
e 4 13
e 4 16
e 4 24
e 5 8
e 5 18
e 6 9
e 6 17
e 7 15
e 7 24
e 9 13
e 10 13
e 10 22
e 12 13
e 12 14
e 12 23
e 13 21
e 13 22
e 13 24
e 15 16
e 18 21
e 19 22
e 21 22
e 22 23
e 23 24
